
Gurobi 13.0.0 (mac64[arm]) logging started Tue Nov 18 10:05:29 2025

Set parameter LogFile to value "/Users/jjung404/PyProjects/qiga/data/steiner-opt/SP/se03_log.txt"
Gurobi Optimizer version 13.0.0 build v13.0.0rc1 (mac64[arm] - Darwin 24.6.0 24G231)

CPU model: Apple M3
Thread count: 8 physical cores, 8 logical processors, using up to 8 threads

Optimize a model with 4 rows, 21 columns and 12 nonzeros (Min)
Model fingerprint: 0xe0dc2489
Model has 21 linear objective coefficients
Variable types: 0 continuous, 21 integer (21 binary)
Coefficient statistics:
  Matrix range     [1e+00, 1e+00]
  Objective range  [1e+00, 2e+00]
  Bounds range     [1e+00, 1e+00]
  RHS range        [1e+00, 1e+00]
Found heuristic solution: objective 8.0000000
Presolve removed 4 rows and 21 columns
Presolve time: 0.00s
Presolve: All rows and columns removed

Explored 0 nodes (0 simplex iterations) in 0.00 seconds (0.00 work units)
Thread count was 1 (of 8 available processors)

Solution count 1: 8 

Optimal solution found (tolerance 1.00e-04)
Best objective 8.000000000000e+00, best bound 8.000000000000e+00, gap 0.0000%
